(declare-const __VERIFIER_assert__cond___7 Int)
(declare-const __VERIFIER_assert__cond___3 Int)
(declare-const |phi___tmp_383_0:405:1159:1190| Int)
(declare-const |phi___VERIFIER_assert__cond___16:395:1169:1200| Int)
(declare-const |main__t':147:385:1153:1183:1214| Int)
(declare-const __VERIFIER_assert__cond___18 Int)
(declare-const havoc Int)
(declare-const |havoc:3:62:1189| Int)
(declare-const |main____CPAchecker_TMP_3':363:390:1158:1188:1219| Int)
(declare-const |main____CPAchecker_TMP_6':369:386:1154:1184:1215| Int)
(declare-const |__VERIFIER_assert__cond___7':367:383:1151:1181:1212| Int)
(declare-const |phi___VERIFIER_assert__cond___12:398:1166:1197| Int)
(declare-const |K:165:166:173:226:1172:1203| Int)
(declare-const |main____CPAchecker_TMP_4':364:389:1157:1187:1218| Int)
(declare-const __VERIFIER_assert__cond___15 Int)
(declare-const __VERIFIER_assert__cond___8 Int)
(declare-const __VERIFIER_assert__cond___11 Int)
(declare-const |main____CPAchecker_TMP_0___0':149:172:179:232:1178:1209| Int)
(declare-const |phi_main__t:403:1161:1192| Int)
(declare-const |__VERIFIER_assert__cond___4':366:387:1155:1185:1216| Int)
(declare-const __VERIFIER_assert__cond___4 Int)
(declare-const |main____CPAchecker_TMP_0':148:169:176:229:1175:1206| Int)
(declare-const |phi___tmp_259_0:404:1160:1191| Int)
(declare-const main____CPAchecker_TMP_4 Int)
(declare-const |__VERIFIER_assert__cond___8':368:384:1152:1182:1213| Int)
(declare-const |phi___VERIFIER_assert__cond___17:394:1170:1201| Int)
(declare-const __VERIFIER_assert__cond___0 Int)
(declare-const |__VERIFIER_assert__cond___18':151:171:178:231:1177:1208| Int)
(declare-const __VERIFIER_assert__cond___12 Int)
(declare-const __VERIFIER_assert__cond Int)
(declare-const main____CPAchecker_TMP_3 Int)
(declare-const |__VERIFIER_assert__cond___17':150:168:175:228:1174:1205| Int)
(declare-const |phi___VERIFIER_assert__cond:401:1163:1194| Int)
(declare-const |main__t':147:167:174:227:1173:1204| Int)
(declare-const main____CPAchecker_TMP_6 Int)
(declare-const |phi___VERIFIER_assert__cond___18:393:1171:1202| Int)
(declare-const __tmp_383_0 Int)
(declare-const |__VERIFIER_assert__cond___3':365:388:1156:1186:1217| Int)
(declare-const main____CPAchecker_TMP_0___0 Int)
(declare-const __VERIFIER_assert__cond___17 Int)
(declare-const |K:381:382:1150:1180:1211| Int)
(declare-const |phi_main____CPAchecker_TMP_0:402:1162:1193| Int)
(declare-const |phi_main____CPAchecker_TMP_0___0:397:1167:1198| Int)
(declare-const |phi___VERIFIER_assert__cond___0:400:1164:1195| Int)
(declare-const |phi___VERIFIER_assert__cond___15:396:1168:1199| Int)
(declare-const __VERIFIER_assert__cond___16 Int)
(declare-const |phi___VERIFIER_assert__cond___11:399:1165:1196| Int)
(declare-const |__tmp_383_0':146:170:177:230:1176:1207| Int)
(declare-const |havoc:9:63:145:225:233:1179:1210| Int)
(assert (and (<= (+ (- havoc) 1) 0) (not (= (+ (- havoc) 1) 0))
               (or (and (not (= |havoc:3:62:1189| 0))
                          (not (= (ite (<= (+ (- havoc) 1) 0) 1 0) 0))
                          (= (+ (- |phi___tmp_383_0:405:1159:1190|)
                                  __tmp_383_0) 0)
                          (= (+ (- |phi___tmp_259_0:404:1160:1191|)
                                  |havoc:3:62:1189|) 0)
                          (= (- |phi_main__t:403:1161:1192|) 0)
                          (= (+ (- |phi_main____CPAchecker_TMP_0:402:1162:1193|)
                                  |havoc:3:62:1189|) 0)
                          (= (+ (- |phi___VERIFIER_assert__cond:401:1163:1194|)
                                  1) 0)
                          (= (+ (- |phi___VERIFIER_assert__cond___0:400:1164:1195|)
                                  (ite (<= (+ (- havoc) 1) 0) 1 0)) 0)
                          (= (+ (- |phi___VERIFIER_assert__cond___11:399:1165:1196|)
                                  __VERIFIER_assert__cond___11) 0)
                          (= (+ (- |phi___VERIFIER_assert__cond___12:398:1166:1197|)
                                  __VERIFIER_assert__cond___12) 0)
                          (= (+ (- |phi_main____CPAchecker_TMP_0___0:397:1167:1198|)
                                  main____CPAchecker_TMP_0___0) 0)
                          (= (+ (- |phi___VERIFIER_assert__cond___15:396:1168:1199|)
                                  __VERIFIER_assert__cond___15) 0)
                          (= (+ (- |phi___VERIFIER_assert__cond___16:395:1169:1200|)
                                  __VERIFIER_assert__cond___16) 0)
                          (= (+ (- |phi___VERIFIER_assert__cond___17:394:1170:1201|)
                                  __VERIFIER_assert__cond___17) 0)
                          (= (+ (- |phi___VERIFIER_assert__cond___18:393:1171:1202|)
                                  __VERIFIER_assert__cond___18) 0))
                     (and (= |havoc:3:62:1189| 0)
                            (not (= (ite (<= (+ (- havoc) 1) 0) 1 0) 0))
                            (or (not (<= (- |K:165:166:173:226:1172:1203|) 0))
                                  (= (+ |main__t':147:167:174:227:1173:1204|
                                          (- |K:165:166:173:226:1172:1203|)) 0))
                            (or (not (and (<= (- |K:165:166:173:226:1172:1203|) 0)
                                            (<= |K:165:166:173:226:1172:1203| 0)))
                                  (= (+ |__VERIFIER_assert__cond___17':150:168:175:228:1174:1205|
                                          (- __VERIFIER_assert__cond___17)) 0))
                            (or (not (<= (+ (- |K:165:166:173:226:1172:1203|)
                                              1) 0))
                                  (= (+ |__VERIFIER_assert__cond___17':150:168:175:228:1174:1205|
                                          -1) 0))
                            (or (not (and (<= (- |K:165:166:173:226:1172:1203|) 0)
                                            (<= |K:165:166:173:226:1172:1203| 0)))
                                  (= (+ |main____CPAchecker_TMP_0':148:169:176:229:1175:1206|
                                          (- |havoc:3:62:1189|)) 0))
                            (or (not (<= (+ (- |K:165:166:173:226:1172:1203|)
                                              1) 0))
                                  (= |main____CPAchecker_TMP_0':148:169:176:229:1175:1206| 0))
                            (or (not (and (<= (- |K:165:166:173:226:1172:1203|) 0)
                                            (<= |K:165:166:173:226:1172:1203| 0)))
                                  (= (+ |__tmp_383_0':146:170:177:230:1176:1207|
                                          (- |havoc:3:62:1189|)) 0))
                            (or (not (<= (+ (- |K:165:166:173:226:1172:1203|)
                                              1) 0))
                                  (= |__tmp_383_0':146:170:177:230:1176:1207| 0))
                            (or (not (and (<= (- |K:165:166:173:226:1172:1203|) 0)
                                            (<= |K:165:166:173:226:1172:1203| 0)))
                                  (= (+ |__VERIFIER_assert__cond___18':151:171:178:231:1177:1208|
                                          (- __VERIFIER_assert__cond___18)) 0))
                            (or (not (<= (+ (- |K:165:166:173:226:1172:1203|)
                                              1) 0))
                                  (= (+ |__VERIFIER_assert__cond___18':151:171:178:231:1177:1208|
                                          -1) 0))
                            (or (not (and (<= (- |K:165:166:173:226:1172:1203|) 0)
                                            (<= |K:165:166:173:226:1172:1203| 0)))
                                  (= (+ |main____CPAchecker_TMP_0___0':149:172:179:232:1178:1209|
                                          (- main____CPAchecker_TMP_0___0)) 0))
                            (or (not (<= (+ (- |K:165:166:173:226:1172:1203|)
                                              1) 0))
                                  (= |main____CPAchecker_TMP_0___0':149:172:179:232:1178:1209| 0))
                            (or (and (= |K:165:166:173:226:1172:1203| 0)
                                       (= (+ (- |__VERIFIER_assert__cond___18':151:171:178:231:1177:1208|)
                                               __VERIFIER_assert__cond___18) 0)
                                       (= (+ (- |__VERIFIER_assert__cond___17':150:168:175:228:1174:1205|)
                                               __VERIFIER_assert__cond___17) 0)
                                       (= (+ (- |main____CPAchecker_TMP_0___0':149:172:179:232:1178:1209|)
                                               main____CPAchecker_TMP_0___0) 0)
                                       (= (+ (- |main____CPAchecker_TMP_0':148:169:176:229:1175:1206|)
                                               |havoc:3:62:1189|) 0)
                                       (= (- |main__t':147:167:174:227:1173:1204|) 0)
                                       (= (+ (- |__tmp_383_0':146:170:177:230:1176:1207|)
                                               |havoc:3:62:1189|) 0))
                                  (and (<= (+ (- |K:165:166:173:226:1172:1203|)
                                                1) 0) (= |havoc:3:62:1189| 0)
                                         (= |havoc:3:62:1189| 0)
                                         (<= (+ (- havoc) 3) 0)
                                         (= (+ |__VERIFIER_assert__cond___18':151:171:178:231:1177:1208|
                                                 -1) 0)
                                         (= (+ |__VERIFIER_assert__cond___17':150:168:175:228:1174:1205|
                                                 -1) 0)
                                         (= |main____CPAchecker_TMP_0':148:169:176:229:1175:1206| 0)
                                         (= |main____CPAchecker_TMP_0___0':149:172:179:232:1178:1209| 0)
                                         (= |__tmp_383_0':146:170:177:230:1176:1207| 0)
                                         (<= (+ |main__t':147:167:174:227:1173:1204|
                                                  (- havoc) 2) 0)
                                         (<= (+ (- |main__t':147:167:174:227:1173:1204|)
                                                  1) 0)))
                            (<= (- |K:165:166:173:226:1172:1203|) 0)
                            (= |__tmp_383_0':146:170:177:230:1176:1207| 0)
                            (= |main____CPAchecker_TMP_0':148:169:176:229:1175:1206| 0)
                            (<= (- |main__t':147:167:174:227:1173:1204|) 0)
                            (< (+ (- havoc) 1) 0)
                            (= |__tmp_383_0':146:170:177:230:1176:1207| 0)
                            (= |main____CPAchecker_TMP_0':148:169:176:229:1175:1206| 0)
                            (not (= (+ |main__t':147:167:174:227:1173:1204|
                                         (- havoc) 2) 0))
                            (not (= |havoc:9:63:145:225:233:1179:1210| 0))
                            (not (= (ite (<= (+ (- |main__t':147:167:174:227:1173:1204|)
                                                  -1) 0)
                                         1 0) 0))
                            (not (= (ite (<= (+ |main__t':147:167:174:227:1173:1204|
                                                  (- havoc) 2) 0)
                                         1 0) 0))
                            (= (+ |__tmp_383_0':146:170:177:230:1176:1207|
                                    (- |phi___tmp_383_0:405:1159:1190|)) 0)
                            (= (+ |havoc:9:63:145:225:233:1179:1210|
                                    (- |phi___tmp_259_0:404:1160:1191|)) 0)
                            (= (+ |main__t':147:167:174:227:1173:1204|
                                    (- |phi_main__t:403:1161:1192|) 1) 0)
                            (= (+ |__tmp_383_0':146:170:177:230:1176:1207|
                                    (- |phi_main____CPAchecker_TMP_0:402:1162:1193|)) 0)
                            (= (+ __VERIFIER_assert__cond
                                    (- |phi___VERIFIER_assert__cond:401:1163:1194|)) 0)
                            (= (+ __VERIFIER_assert__cond___0
                                    (- |phi___VERIFIER_assert__cond___0:400:1164:1195|)) 0)
                            (= (+ (- |phi___VERIFIER_assert__cond___11:399:1165:1196|)
                                    1) 0)
                            (= (+ (- |phi___VERIFIER_assert__cond___12:398:1166:1197|)
                                    (ite (<= (+ (- havoc) 1) 0) 1 0)) 0)
                            (= (+ |havoc:9:63:145:225:233:1179:1210|
                                    (- |phi_main____CPAchecker_TMP_0___0:397:1167:1198|)) 0)
                            (= (+ (ite (<= (+ (- |main__t':147:167:174:227:1173:1204|)
                                                -1) 0)
                                       1 0)
                                    (- |phi___VERIFIER_assert__cond___15:396:1168:1199|)) 0)
                            (= (+ (ite (<= (+ |main__t':147:167:174:227:1173:1204|
                                                (- havoc) 2) 0)
                                       1 0)
                                    (- |phi___VERIFIER_assert__cond___16:395:1169:1200|)) 0)
                            (= (+ |__VERIFIER_assert__cond___17':150:168:175:228:1174:1205|
                                    (- |phi___VERIFIER_assert__cond___17:394:1170:1201|)) 0)
                            (= (+ |__VERIFIER_assert__cond___18':151:171:178:231:1177:1208|
                                    (- |phi___VERIFIER_assert__cond___18:393:1171:1202|)) 0)))
               (or (not (and (<= (- |K:381:382:1150:1180:1211|) 0)
                               (<= |K:381:382:1150:1180:1211| 0)))
                     (= (+ (- __VERIFIER_assert__cond___7)
                             |__VERIFIER_assert__cond___7':367:383:1151:1181:1212|) 0))
               (or (not (<= (+ (- |K:381:382:1150:1180:1211|) 1) 0))
                     (= (+ |__VERIFIER_assert__cond___7':367:383:1151:1181:1212|
                             -1) 0))
               (or (not (and (<= (- |K:381:382:1150:1180:1211|) 0)
                               (<= |K:381:382:1150:1180:1211| 0)))
                     (= (+ (- __VERIFIER_assert__cond___8)
                             |__VERIFIER_assert__cond___8':368:384:1152:1182:1213|) 0))
               (or (not (<= (+ (- |K:381:382:1150:1180:1211|) 1) 0))
                     (= (+ |__VERIFIER_assert__cond___8':368:384:1152:1182:1213|
                             -1) 0))
               (or (not (<= (- |K:381:382:1150:1180:1211|) 0))
                     (<= (+ |main__t':147:385:1153:1183:1214|
                              (* -2 |K:381:382:1150:1180:1211|)
                              (- |phi_main__t:403:1161:1192|) -1) 0))
               (or (not (<= (- |K:381:382:1150:1180:1211|) 0))
                     (<= (+ |main__t':147:385:1153:1183:1214|
                              (* 2 |K:381:382:1150:1180:1211|)
                              (- |phi_main__t:403:1161:1192|)
                              (- (* |K:381:382:1150:1180:1211| havoc)) -1) 0))
               (or (not (<= (- |K:381:382:1150:1180:1211|) 0))
                     (<= (+ (- |main__t':147:385:1153:1183:1214|)
                              |K:381:382:1150:1180:1211|
                              |phi_main__t:403:1161:1192| 1) 0))
               (or (and (= |K:381:382:1150:1180:1211| 0)
                          (= (+ (- |main____CPAchecker_TMP_6':369:386:1154:1184:1215|)
                                  main____CPAchecker_TMP_6) 0)
                          (= (+ __VERIFIER_assert__cond___8
                                  (- |__VERIFIER_assert__cond___8':368:384:1152:1182:1213|)) 0)
                          (= (+ __VERIFIER_assert__cond___7
                                  (- |__VERIFIER_assert__cond___7':367:383:1151:1181:1212|)) 0)
                          (= (+ (- |__VERIFIER_assert__cond___4':366:387:1155:1185:1216|)
                                  __VERIFIER_assert__cond___4) 0)
                          (= (+ (- |__VERIFIER_assert__cond___3':365:388:1156:1186:1217|)
                                  __VERIFIER_assert__cond___3) 0)
                          (= (+ (- |main____CPAchecker_TMP_4':364:389:1157:1187:1218|)
                                  main____CPAchecker_TMP_4) 0)
                          (= (+ (- |main____CPAchecker_TMP_3':363:390:1158:1188:1219|)
                                  main____CPAchecker_TMP_3) 0)
                          (= (+ (- |main__t':147:385:1153:1183:1214|)
                                  |phi_main__t:403:1161:1192| 1) 0))
                     (and (<= (+ (- |K:381:382:1150:1180:1211|) 1) 0)
                            (<= (+ |phi_main__t:403:1161:1192| (- havoc) 3) 0)
                            (<= (- |phi_main__t:403:1161:1192|) 0)
                            (= (+ |__VERIFIER_assert__cond___8':368:384:1152:1182:1213|
                                    -1) 0)
                            (= (+ |__VERIFIER_assert__cond___7':367:383:1151:1181:1212|
                                    -1) 0)
                            (<= (+ |main__t':147:385:1153:1183:1214|
                                     (- havoc) 1) 0)
                            (<= (+ (- |main__t':147:385:1153:1183:1214|) 2) 0)))
               (<= (- |K:381:382:1150:1180:1211|) 0)
               (< (- |main__t':147:385:1153:1183:1214|) 0)
               (< (+ (- havoc) 1) 0)
               (= (+ |main__t':147:385:1153:1183:1214| (- havoc) 1) 0)
               (not (= (ite (<= (- |main__t':147:385:1153:1183:1214|) 0) 1 0) 0))
               (= (ite (<= (+ |main__t':147:385:1153:1183:1214| (- havoc) 1) 0)
                       1 0) 0)))
(check-sat)
